benchmarks/bfuzz0/3818178892926452719750101302722915461.smt2
(set-logic QF_FP)
(declare-const x0 (_ FloatingPoint 8 24))
(declare-const x1 (_ FloatingPoint 8 24))
(declare-const x2 (_ FloatingPoint 8 24))
(declare-const x3 (_ FloatingPoint 8 24))
(declare-const x4 (_ FloatingPoint 8 24))
(declare-const x5 (_ FloatingPoint 8 24))
(declare-const x6 (_ FloatingPoint 8 24))
(declare-const x7 (_ FloatingPoint 8 24))
(declare-const x8 (_ FloatingPoint 8 24))
(declare-const x9 (_ FloatingPoint 8 24))
(declare-const x10 (_ FloatingPoint 8 24))
(declare-const x11 (_ FloatingPoint 8 24))
(declare-const x12 (_ FloatingPoint 8 24))
(assert (fp.leq (fp.sub RNE (fp.neg (fp.mul RNE (fp.div RNE x3 x9) (fp.sub RNE x0 x8))) (fp.sub RNE (fp.mul RNE (fp.add RNE x6 x6) (fp.neg x5)) (fp.sub RNE (fp.sub RNE x12 x1) (fp.sub RNE x10 x12)))) (fp.sub RNE (fp.mul RNE (fp.div RNE (fp.div RNE x11 x2) (fp.mul RNE x2 x5)) (fp.sub RNE (fp.add RNE x6 x11) (fp.mul RNE x2 x1))) (fp.sub RNE (fp.mul RNE (fp.div RNE x6 x11) (fp.neg x2)) (fp.add RNE (fp.sub RNE x9 x2) (fp.neg x4))))))
(assert (fp.gt (fp.add RNE (fp.add RNE (fp.mul RNE (fp.neg x1) (fp.div RNE x11 x8)) (fp.neg (fp.add RNE x4 x0))) (fp.sub RNE (fp.mul RNE (fp.sub RNE x4 x3) (fp.div RNE x5 x5)) (fp.neg (fp.mul RNE x2 x11)))) (fp.div RNE (fp.mul RNE (fp.add RNE (fp.div RNE x12 x10) (fp.add RNE x8 x8)) (fp.mul RNE (fp.sub RNE x2 x6) (fp.mul RNE x1 x12))) (fp.div RNE (fp.mul RNE (fp.add RNE x3 x5) (fp.mul RNE x5 x6)) (fp.add RNE (fp.mul RNE x0 x8) (fp.neg x2))))))
(assert (fp.lt (fp.sub RNE (fp.div RNE (fp.div RNE (fp.sub RNE x1 x2) (fp.div RNE x5 x7)) (fp.neg (fp.neg x1))) (fp.div RNE (fp.mul RNE (fp.neg x9) (fp.div RNE x10 x8)) (fp.neg (fp.div RNE x10 x8)))) (fp.mul RNE (fp.mul RNE (fp.neg (fp.div RNE x11 x3)) (fp.neg (fp.mul RNE x1 x6))) (fp.mul RNE (fp.mul RNE (fp.sub RNE x10 x1) (fp.mul RNE x0 x5)) (fp.neg (fp.sub RNE x2 x8))))))
(assert (fp.lt (fp.div RNE (fp.neg (fp.sub RNE (fp.div RNE x7 x3) (fp.add RNE x10 x7))) (fp.sub RNE (fp.div RNE (fp.mul RNE x10 x7) (fp.div RNE x11 x7)) (fp.neg (fp.neg x8)))) (fp.add RNE (fp.neg (fp.mul RNE (fp.div RNE x1 x0) (fp.add RNE x1 x4))) (fp.neg (fp.mul RNE (fp.sub RNE x2 x9) (fp.add RNE x11 x4))))))
(assert (fp.geq (fp.neg (fp.neg (fp.mul RNE (fp.neg x7) (fp.mul RNE x7 x12)))) (fp.sub RNE (fp.div RNE (fp.add RNE (fp.neg x1) (fp.sub RNE x12 x0)) (fp.sub RNE (fp.div RNE x6 x12) (fp.sub RNE x12 x0))) (fp.sub RNE (fp.add RNE (fp.neg x12) (fp.mul RNE x5 x0)) (fp.sub RNE (fp.div RNE x8 x11) (fp.neg x3))))))
(check-sat)
