db/data/3818178892926452719750101302722915461.z3.out
-------------------
2500.158412226
